(set-logic QF_S)
(declare-fun var_0xINPUT_90241 () String)
(assert (and (= (len var_0xINPUT_90241) 0) (= (len var_0xINPUT_90241) 0) (not (= var_0xINPUT_90241 "j2DpYJpVEE"))))
(check-sat var_0xINPUT_90241)